
Gurobi 11.0.1 (win64) logging started Tue May 14 18:25:58 2024

Set parameter LogFile to value "output/solver_log33.txt"
Gurobi Optimizer version 11.0.1 build v11.0.1rc0 (win64 - Windows 11.0 (22631.2))

CPU model: 11th Gen Intel(R) Core(TM) i7-1165G7 @ 2.80GHz, instruction set [SSE2|AVX|AVX2|AVX512]
Thread count: 4 physical cores, 8 logical processors, using up to 8 threads

Optimize a model with 1085 rows, 228 columns and 20467 nonzeros
Model fingerprint: 0xaf0c71e2
Variable types: 88 continuous, 140 integer (140 binary)
Coefficient statistics:
  Matrix range     [4e-01, 1e+05]
  Objective range  [1e+00, 1e+02]
  Bounds range     [1e+00, 1e+00]
  RHS range        [1e-02, 1e+05]

User MIP start produced solution with objective 38085.5 (0.00s)
User MIP start produced solution with objective 39414.8 (0.00s)
User MIP start produced solution with objective 39414.8 (0.00s)
Loaded user MIP start with objective 39414.8

Presolve removed 89 rows and 91 columns
Presolve time: 0.02s
Presolved: 996 rows, 137 columns, 19692 nonzeros
Variable types: 81 continuous, 56 integer (55 binary)

Root relaxation: objective 4.084674e+04, 272 iterations, 0.02 seconds (0.03 work units)

    Nodes    |    Current Node    |     Objective Bounds      |     Work
 Expl Unexpl |  Obj  Depth IntInf | Incumbent    BestBd   Gap | It/Node Time

     0     0 40846.7365    0    8 39414.8382 40846.7365  3.63%     -    0s
     0     0 39891.5401    0    5 39414.8382 39891.5401  1.21%     -    0s
     0     0 39419.3715    0    5 39414.8382 39419.3715  0.01%     -    0s
     0     0 39419.0982    0    4 39414.8382 39419.0982  0.01%     -    0s
     0     0 39419.0982    0    4 39414.8382 39419.0982  0.01%     -    0s
     0     0 39419.0940    0    4 39414.8382 39419.0940  0.01%     -    0s
     0     2 39419.0940    0    4 39414.8382 39419.0940  0.01%     -    0s

Explored 19 nodes (1323 simplex iterations) in 0.40 seconds (0.62 work units)
Thread count was 8 (of 8 available processors)

Solution count 3: 39414.8 39414.8 38085.5 

Optimal solution found (tolerance 1.00e-04)
Best objective 3.941483821470e+04, best bound 3.941840801574e+04, gap 0.0091%
